c turning on binary mode checking
c parsing input formula with 259840 variables and 1039924 clauses
c finished parsing, read 23761245 bytes from proof file
c detected empty clause; start verification via backward checking
c 8439 of 1039924 clauses in core                            
c 10803 of 605308 lemmas in core using 50178 resolution steps
c 0 RAT lemmas in core; 337 redundant literals in core lemmas
s VERIFIED
c verification time: 2.692 seconds
